1131, 0, 0, 42, 1
1132, 0, 1, 86, 4
1133, 0, 2, 70, 0
1134, 0, 3, 73, 2
1135, 0, 4, 58, 3
1136, 1, 0, 45, 1
1137, 1, 1, 72, 3
1138, 1, 2, 46, 0
1139, 1, 3, 31, 2
1140, 1, 4, 58, 4
1141, 2, 0, 53, 3
1142, 2, 1, 78, 2
1143, 2, 2, 60, 4
1144, 2, 3, 65, 0
1145, 2, 4, 49, 1
1146, 3, 0, 93, 1
1147, 3, 1, 80, 4
1148, 3, 2, 61, 2
1149, 3, 3, 74, 0
1150, 3, 4, 67, 3
